[810, 956, 936, 864, 152, 165, 975, 341, 217, 176][51, 830, 52, 966, 126, 834, 310, 358, 506, 566][0, 45, 91, 136, 182, 227, 273, 318, 364, 409, 455, 500, 546, 591, 637, 683, 728, 774, 819, 865, 910, 956, 1001, 1047, 1092, 1138, 1183, 1229, 1274, 1320, 1366, 1411, 1457, 1502, 1548, 1593, 1639, 1684, 1730, 1775, 1821, 1866, 1912, 1957, 2003, 2049, 2094, 2140, 2185, 2231, 2276, 2322, 2367, 2413, 2458, 2504, 2549, 2595, 2641, 2686, 2732, 2777, 2823, 2868, 2914, 2959, 3005, 3050, 3096, 3141, 3187, 3232, 3278, 3324, 3369, 3415, 3460, 3506, 3551, 3597, 3642, 3688, 3733, 3779, 3824, 3870, 3915, 3961, 4007, 4052, 4098, 4143, 4189, 4234, 4280, 4325, 4371, 4416, 4462, 4507, 4553]